NAME : DD75.2359981.tour
COMMENT : Cost = 0_2359981
COMMENT : Found by LKH [Keld Helsgaun] Sun Apr 23 15:14:36 2017
TYPE : TOUR
DIMENSION : 154
TOUR_SECTION
1
38
113
76
71
151
146
42
117
14
89
3
78
16
48
123
91
22
97
55
130
2
77
4
58
133
79
36
111
41
28
116
103
154
17
92
60
40
135
115
57
132
50
125
12
87
74
149
5
80
56
131
25
100
61
136
37
51
126
15
112
90
63
138
8
69
83
144
45
11
86
59
120
26
101
134
43
118
153
73
19
148
94
18
93
34
109
64
139
32
107
35
110
21
96
10
85
47
122
70
75
145
150
46
121
44
119
53
128
152
7
82
29
104
62
27
137
102
65
140
49
9
84
6
81
66
141
124
67
142
31
33
106
52
127
108
13
88
39
114
72
68
143
54
147
24
99
30
129
20
95
105
23
98
-1
EOF
